feasible solution found by trivial heuristic after 0.3 seconds, objective value 0.000000e+00
presolving:
(round 1, fast)       1532 del vars, 116501 del conss, 0 add conss, 4360 chg bounds, 0 chg sides, 1142 chg coeffs, 0 upgd conss, 0 impls, 0 clqs
(round 2, fast)       1612 del vars, 116606 del conss, 0 add conss, 4360 chg bounds, 0 chg sides, 1220 chg coeffs, 0 upgd conss, 0 impls, 0 clqs
(round 3, fast)       1620 del vars, 116607 del conss, 0 add conss, 4360 chg bounds, 0 chg sides, 1220 chg coeffs, 0 upgd conss, 0 impls, 0 clqs
   (0.7s) running MILP presolver
   (0.7s) MILP presolver (6 rounds): 4 aggregations, 25 fixings, 8 bound changes
(round 4, medium)     1649 del vars, 116607 del conss, 0 add conss, 4373 chg bounds, 0 chg sides, 1220 chg coeffs, 0 upgd conss, 0 impls, 0 clqs
(round 5, fast)       1649 del vars, 116618 del conss, 0 add conss, 4373 chg bounds, 0 chg sides, 1257 chg coeffs, 0 upgd conss, 0 impls, 0 clqs
(round 6, exhaustive) 1649 del vars, 116621 del conss, 0 add conss, 4373 chg bounds, 0 chg sides, 1257 chg coeffs, 0 upgd conss, 0 impls, 0 clqs
(round 7, exhaustive) 1649 del vars, 116621 del conss, 0 add conss, 4373 chg bounds, 0 chg sides, 1257 chg coeffs, 208 upgd conss, 0 impls, 0 clqs
   (0.8s) probing: 51/1135 (4.5%) - 0 fixings, 0 aggregations, 0 implications, 0 bound changes
   (0.8s) probing aborted: 50/50 successive totally useless probings
   (0.8s) symmetry computation started: requiring (bin +, int -, cont +), (fixed: bin -, int +, cont -)
   (0.8s) no symmetry present
presolving (8 rounds: 8 fast, 4 medium, 3 exhaustive):
 1649 deleted vars, 116621 deleted constraints, 0 added constraints, 4373 tightened bounds, 0 added holes, 0 changed sides, 1257 changed coefficients
 208 implications, 0 cliques
presolved problem has 2563 variables (1135 bin, 0 int, 0 impl, 1428 cont) and 3199 constraints
    208 constraints of type <varbound>
   2991 constraints of type <linear>
Presolving Time: 0.51

 time | node  | left  |LP iter|LP it/n|mem/heur|mdpt |vars |cons |rows |cuts |sepa|confs|strbr|  dualbound   | primalbound  |  gap   | compl. 
t 0.8s|     1 |     0 |     0 |     - | trivial|   0 |2563 |3199 |   0 |   0 |  0 |   0 |   0 | 6.491824e+07 | 8.435594e+05 |7595.75%| unknown
p 3.7s|     1 |     0 |  9642 |     - |   locks|   0 |2563 |3199 |3199 |   0 |  0 |   0 |   0 | 6.491824e+07 | 2.462992e+07 | 163.57%| unknown
i 3.8s|     1 |     0 |  9642 |     - |  oneopt|   0 |2563 |3199 |3199 |   0 |  0 |   0 |   0 | 6.491824e+07 | 2.463342e+07 | 163.54%| unknown
  6.6s|     1 |     0 | 19693 |     - |   117M |   0 |2563 |3199 |3199 |   0 |  0 |   0 |   0 | 2.466552e+07 | 2.463342e+07 |   0.13%| unknown
  6.7s|     1 |     0 | 19693 |     - |   118M |   0 |2563 |3199 |3199 |   0 |  0 |   0 |   0 | 2.466552e+07 | 2.463342e+07 |   0.13%| unknown
  6.9s|     1 |     0 | 19845 |     - |   121M |   0 |2563 |3199 |3346 | 147 |  1 |   0 |   0 | 2.466133e+07 | 2.463342e+07 |   0.11%| unknown
  7.3s|     1 |     0 | 19952 |     - |   124M |   0 |2563 |3199 |3440 | 241 |  2 |   0 |   0 | 2.465869e+07 | 2.463342e+07 |   0.10%| unknown
  7.8s|     1 |     0 | 20227 |     - |   127M |   0 |2563 |3199 |3640 | 441 |  3 |   0 |   0 | 2.465490e+07 | 2.463342e+07 |   0.09%| unknown
r 7.8s|     1 |     0 | 20227 |     - |simplero|   0 |2563 |3199 |3640 | 441 |  3 |   0 |   0 | 2.465490e+07 | 2.463350e+07 |   0.09%| unknown
r 7.9s|     1 |     0 | 20227 |     - |rounding|   0 |2563 |3199 |3640 | 441 |  3 |   0 |   0 | 2.465490e+07 | 2.463350e+07 |   0.09%| unknown
  7.9s|     1 |     0 | 20227 |     - |   127M |   0 |2563 |3199 |3640 | 441 |  3 |   0 |   0 | 2.465490e+07 | 2.463350e+07 |   0.09%| unknown
  8.2s|     1 |     0 | 20391 |     - |   131M |   0 |2563 |3199 |3781 | 582 |  4 |   0 |   0 | 2.465149e+07 | 2.463350e+07 |   0.07%| unknown
r 8.2s|     1 |     0 | 20391 |     - |simplero|   0 |2563 |3199 |3781 | 582 |  4 |   0 |   0 | 2.465149e+07 | 2.463350e+07 |   0.07%| unknown
  8.6s|     1 |     0 | 20581 |     - |   135M |   0 |2563 |3199 |3916 | 717 |  5 |   0 |   0 | 2.464811e+07 | 2.463350e+07 |   0.06%| unknown
  8.6s|     1 |     0 | 20581 |     - |   136M |   0 |2563 |3199 |3915 | 717 |  5 |   0 |   0 | 2.464811e+07 | 2.463350e+07 |   0.06%| unknown
 time | node  | left  |LP iter|LP it/n|mem/heur|mdpt |vars |cons |rows |cuts |sepa|confs|strbr|  dualbound   | primalbound  |  gap   | compl. 
  9.0s|     1 |     0 | 20751 |     - |   140M |   0 |2563 |3199 |4046 | 848 |  6 |   0 |   0 | 2.464460e+07 | 2.463350e+07 |   0.05%| unknown
  9.5s|     1 |     0 | 20862 |     - |   143M |   0 |2563 |3199 |4110 | 912 |  7 |   0 |   0 | 2.464320e+07 | 2.463350e+07 |   0.04%| unknown
 10.0s|     1 |     0 | 20917 |     - |   147M |   0 |2563 |3199 |4143 | 945 |  8 |   0 |   0 | 2.464283e+07 | 2.463350e+07 |   0.04%| unknown
 10.4s|     1 |     0 | 20953 |     - |   151M |   0 |2563 |3199 |4163 | 965 |  9 |   0 |   0 | 2.464247e+07 | 2.463350e+07 |   0.04%| unknown
 10.9s|     1 |     0 | 20978 |     - |   156M |   0 |2563 |3199 |4173 | 975 | 10 |   0 |   0 | 2.464231e+07 | 2.463350e+07 |   0.04%| unknown
 11.3s|     1 |     0 | 20993 |     - |   157M |   0 |2563 |3199 |4179 | 981 | 11 |   0 |   0 | 2.464221e+07 | 2.463350e+07 |   0.04%| unknown
 11.7s|     1 |     0 | 21149 |     - |   157M |   0 |2563 |3199 |4273 |1075 | 12 |   0 |   0 | 2.464133e+07 | 2.463350e+07 |   0.03%| unknown
 12.1s|     1 |     0 | 21232 |     - |   158M |   0 |2563 |3199 |4320 |1122 | 13 |   0 |   0 | 2.464096e+07 | 2.463350e+07 |   0.03%| unknown
 12.5s|     1 |     0 | 21299 |     - |   158M |   0 |2563 |3199 |4351 |1153 | 14 |   0 |   0 | 2.464073e+07 | 2.463350e+07 |   0.03%| unknown
 12.8s|     1 |     0 | 21340 |     - |   159M |   0 |2563 |3199 |4375 |1177 | 15 |   0 |   0 | 2.464039e+07 | 2.463350e+07 |   0.03%| unknown
 13.3s|     1 |     0 | 21373 |     - |   161M |   0 |2563 |3199 |4335 |1191 | 16 |   0 |   0 | 2.464030e+07 | 2.463350e+07 |   0.03%| unknown
L43.7s|     1 |     0 | 21469 |     - |    rens|   0 |2563 |3196 |4335 |1191 | 16 | 431 |   0 | 2.464027e+07 | 2.463366e+07 |   0.03%| unknown
 48.0s|     1 |     0 | 21472 |     - |   161M |   0 |2563 |3091 |4335 |1191 | 16 | 431 |   0 | 2.464026e+07 | 2.463366e+07 |   0.03%| unknown
 48.4s|     1 |     0 | 21502 |     - |   161M |   0 |2563 |3091 |4137 |1214 | 17 | 431 |   0 | 2.464008e+07 | 2.463366e+07 |   0.03%| unknown
 48.5s|     1 |     0 | 21531 |     - |   161M |   0 |2563 |3091 |4144 |1221 | 18 | 431 |   0 | 2.463991e+07 | 2.463366e+07 |   0.03%| unknown
 time | node  | left  |LP iter|LP it/n|mem/heur|mdpt |vars |cons |rows |cuts |sepa|confs|strbr|  dualbound   | primalbound  |  gap   | compl. 
 49.2s|     1 |     0 | 21543 |     - |   162M |   0 |2563 |3082 |4144 |1221 | 18 | 437 |   9 | 2.463977e+07 | 2.463366e+07 |   0.02%| unknown
 49.7s|     1 |     0 | 21583 |     - |   162M |   0 |2563 |3082 |4152 |1241 | 19 | 437 |   9 | 2.463955e+07 | 2.463366e+07 |   0.02%| unknown
 49.7s|     1 |     0 | 21583 |     - |   162M |   0 |2563 |3082 |4151 |1241 | 19 | 437 |   9 | 2.463955e+07 | 2.463366e+07 |   0.02%| unknown
 49.7s|     1 |     0 | 21587 |     - |   162M |   0 |2563 |3082 |4154 |1244 | 20 | 437 |   9 | 2.463952e+07 | 2.463366e+07 |   0.02%| unknown
 50.4s|     1 |     0 | 21597 |     - |   162M |   0 |2563 |3077 |4154 |1244 | 20 | 441 |  16 | 2.463948e+07 | 2.463366e+07 |   0.02%| unknown
 50.8s|     1 |     0 | 21617 |     - |   163M |   0 |2563 |3077 |4152 |1254 | 21 | 441 |  16 | 2.463936e+07 | 2.463366e+07 |   0.02%| unknown
 50.9s|     1 |     0 | 21624 |     - |   163M |   0 |2563 |3077 |4155 |1257 | 22 | 441 |  16 | 2.463933e+07 | 2.463366e+07 |   0.02%| unknown
 51.4s|     1 |     0 | 21633 |     - |   163M |   0 |2563 |3072 |4155 |1257 | 22 | 446 |  22 | 2.463926e+07 | 2.463366e+07 |   0.02%| unknown
 51.9s|     1 |     0 | 21645 |     - |   163M |   0 |2563 |3072 |4011 |1265 | 23 | 446 |  22 | 2.463904e+07 | 2.463366e+07 |   0.02%| unknown
 51.9s|     1 |     0 | 21651 |     - |   163M |   0 |2563 |3072 |4019 |1273 | 24 | 446 |  22 | 2.463901e+07 | 2.463366e+07 |   0.02%| unknown
 52.2s|     1 |     0 | 21673 |     - |   163M |   0 |2563 |3060 |4019 |1273 | 24 | 454 |  27 | 2.463890e+07 | 2.463366e+07 |   0.02%| unknown
 52.6s|     1 |     0 | 21685 |     - |   163M |   0 |2563 |3060 |4002 |1282 | 25 | 454 |  27 | 2.463884e+07 | 2.463366e+07 |   0.02%| unknown
 52.7s|     1 |     0 | 21689 |     - |   163M |   0 |2563 |3060 |3956 |1285 | 26 | 454 |  27 | 2.463883e+07 | 2.463366e+07 |   0.02%| unknown
 53.0s|     1 |     0 | 21705 |     - |   163M |   0 |2563 |3051 |3956 |1285 | 26 | 462 |  33 | 2.463871e+07 | 2.463366e+07 |   0.02%| unknown
 53.4s|     1 |     0 | 21714 |     - |   165M |   0 |2563 |3051 |3946 |1292 | 27 | 462 |  33 | 2.463860e+07 | 2.463366e+07 |   0.02%| unknown
 time | node  | left  |LP iter|LP it/n|mem/heur|mdpt |vars |cons |rows |cuts |sepa|confs|strbr|  dualbound   | primalbound  |  gap   | compl. 
 53.5s|     1 |     0 | 21719 |     - |   165M |   0 |2563 |3051 |3949 |1295 | 28 | 462 |  33 | 2.463858e+07 | 2.463366e+07 |   0.02%| unknown
 54.2s|     1 |     0 | 21725 |     - |   165M |   0 |2563 |3047 |3925 |1295 | 28 | 466 |  41 | 2.463849e+07 | 2.463366e+07 |   0.02%| unknown
 54.6s|     1 |     0 | 21730 |     - |   165M |   0 |2563 |3047 |3930 |1300 | 29 | 466 |  41 | 2.463848e+07 | 2.463366e+07 |   0.02%| unknown
 54.6s|     1 |     0 | 21738 |     - |   165M |   0 |2563 |3047 |3932 |1302 | 30 | 466 |  41 | 2.463840e+07 | 2.463366e+07 |   0.02%| unknown
 54.6s|     1 |     0 | 21738 |     - |   165M |   0 |2563 |3047 |3926 |1302 | 30 | 466 |  41 | 2.463840e+07 | 2.463366e+07 |   0.02%| unknown
 55.0s|     1 |     0 | 21745 |     - |   165M |   0 |2563 |3044 |3926 |1302 | 30 | 477 |  49 | 2.463830e+07 | 2.463366e+07 |   0.02%| unknown
 55.2s|     1 |     0 | 21748 |     - |   165M |   0 |2563 |3044 |3900 |1304 | 31 | 477 |  49 | 2.463830e+07 | 2.463366e+07 |   0.02%| unknown
 55.2s|     1 |     0 | 21750 |     - |   165M |   0 |2563 |3044 |3902 |1306 | 32 | 477 |  49 | 2.463830e+07 | 2.463366e+07 |   0.02%| unknown
 55.5s|     1 |     0 | 21758 |     - |   166M |   0 |2563 |3041 |3902 |1306 | 32 | 486 |  56 | 2.463816e+07 | 2.463366e+07 |   0.02%| unknown
 55.9s|     1 |     0 | 21762 |     - |   166M |   0 |2563 |3041 |3906 |1310 | 33 | 486 |  56 | 2.463813e+07 | 2.463366e+07 |   0.02%| unknown
 55.9s|     1 |     0 | 21766 |     - |   166M |   0 |2563 |3041 |3908 |1312 | 34 | 486 |  56 | 2.463811e+07 | 2.463366e+07 |   0.02%| unknown
 56.4s|     1 |     0 | 21776 |     - |   166M |   0 |2563 |3041 |3908 |1312 | 34 | 494 |  63 | 2.463803e+07 | 2.463366e+07 |   0.02%| unknown
(run 1, node 1) restarting after 117 global fixings of integer variables

(restart) converted 933 cuts from the global cut pool into linear constraints

presolving:
(round 1, fast)       215 del vars, 243 del conss, 0 add conss, 122 chg bounds, 5 chg sides, 466 chg coeffs, 0 upgd conss, 208 impls, 0 clqs
(round 2, fast)       225 del vars, 255 del conss, 0 add conss, 122 chg bounds, 5 chg sides, 499 chg coeffs, 0 upgd conss, 208 impls, 0 clqs
(round 3, exhaustive) 225 del vars, 299 del conss, 0 add conss, 130 chg bounds, 5 chg sides, 499 chg coeffs, 0 upgd conss, 208 impls, 0 clqs
(round 4, exhaustive) 225 del vars, 299 del conss, 0 add conss, 130 chg bounds, 5 chg sides, 499 chg coeffs, 127 upgd conss, 208 impls, 0 clqs
(round 5, exhaustive) 228 del vars, 299 del conss, 0 add conss, 130 chg bounds, 5 chg sides, 499 chg coeffs, 127 upgd conss, 335 impls, 0 clqs
presolving (6 rounds: 6 fast, 4 medium, 4 exhaustive):
 229 deleted vars, 300 deleted constraints, 0 added constraints, 130 tightened bounds, 0 added holes, 5 changed sides, 499 changed coefficients
 335 implications, 0 cliques
presolved problem has 2334 variables (935 bin, 0 int, 0 impl, 1399 cont) and 3674 constraints
    308 constraints of type <varbound>
   3366 constraints of type <linear>
Presolving Time: 0.63
transformed 68/78 original solutions to the transformed problem space

 time | node  | left  |LP iter|LP it/n|mem/heur|mdpt |vars |cons |rows |cuts |sepa|confs|strbr|  dualbound   | primalbound  |  gap   | compl. 
 59.4s|     1 |     0 | 31899 |     - |   154M |   0 |2334 |3674 |3674 |   0 |  0 | 494 |  63 | 2.463797e+07 | 2.463366e+07 |   0.02%| unknown
 59.5s|     1 |     0 | 31899 |     - |   154M |   0 |2334 |3674 |3653 |   0 |  0 | 494 |  63 | 2.463797e+07 | 2.463366e+07 |   0.02%| unknown
 59.8s|     1 |     0 | 31945 |     - |   156M |   0 |2334 |3674 |3677 |  24 |  1 | 494 |  63 | 2.463746e+07 | 2.463366e+07 |   0.02%| unknown
 59.8s|     1 |     0 | 31945 |     - |   156M |   0 |2334 |3674 |3676 |  24 |  1 | 494 |  63 | 2.463746e+07 | 2.463366e+07 |   0.02%| unknown
 60.1s|     1 |     0 | 31970 |     - |   158M |   0 |2334 |3674 |3684 |  32 |  2 | 494 |  63 | 2.463730e+07 | 2.463366e+07 |   0.01%| unknown
 60.1s|     1 |     0 | 31970 |     - |   158M |   0 |2334 |3674 |3683 |  32 |  2 | 494 |  63 | 2.463730e+07 | 2.463366e+07 |   0.01%| unknown
 60.4s|     1 |     0 | 31983 |     - |   161M |   0 |2334 |3674 |3686 |  35 |  3 | 494 |  63 | 2.463718e+07 | 2.463366e+07 |   0.01%| unknown
 60.4s|     1 |     0 | 31983 |     - |   161M |   0 |2334 |3674 |3685 |  35 |  3 | 494 |  63 | 2.463718e+07 | 2.463366e+07 |   0.01%| unknown
 60.7s|     1 |     0 | 31992 |     - |   163M |   0 |2334 |3674 |3690 |  40 |  4 | 494 |  63 | 2.463710e+07 | 2.463366e+07 |   0.01%| unknown
 60.7s|     1 |     0 | 31992 |     - |   163M |   0 |2334 |3674 |3689 |  40 |  4 | 494 |  63 | 2.463710e+07 | 2.463366e+07 |   0.01%| unknown
 61.0s|     1 |     0 | 32004 |     - |   167M |   0 |2334 |3674 |3692 |  43 |  5 | 494 |  63 | 2.463707e+07 | 2.463366e+07 |   0.01%| unknown
 61.3s|     1 |     0 | 32042 |     - |   170M |   0 |2334 |3674 |3696 |  47 |  6 | 494 |  63 | 2.463695e+07 | 2.463366e+07 |   0.01%| unknown
 61.3s|     1 |     0 | 32042 |     - |   170M |   0 |2334 |3674 |3695 |  47 |  6 | 494 |  63 | 2.463695e+07 | 2.463366e+07 |   0.01%| unknown
 61.5s|     1 |     0 | 32075 |     - |   174M |   0 |2334 |3674 |3699 |  51 |  7 | 494 |  63 | 2.463690e+07 | 2.463366e+07 |   0.01%| unknown
 61.7s|     1 |     0 | 32082 |     - |   177M |   0 |2334 |3674 |3701 |  53 |  8 | 494 |  63 | 2.463690e+07 | 2.463366e+07 |   0.01%| unknown
 time | node  | left  |LP iter|LP it/n|mem/heur|mdpt |vars |cons |rows |cuts |sepa|confs|strbr|  dualbound   | primalbound  |  gap   | compl. 
 61.9s|     1 |     0 | 32148 |     - |   181M |   0 |2334 |3674 |3728 |  80 |  9 | 494 |  63 | 2.463675e+07 | 2.463366e+07 |   0.01%| unknown
 62.0s|     1 |     0 | 32148 |     - |   181M |   0 |2334 |3674 |3727 |  80 |  9 | 494 |  63 | 2.463675e+07 | 2.463366e+07 |   0.01%| unknown
 62.3s|     1 |     0 | 32190 |     - |   185M |   0 |2334 |3674 |3740 |  93 | 10 | 494 |  63 | 2.463670e+07 | 2.463366e+07 |   0.01%| unknown
 62.3s|     1 |     0 | 32190 |     - |   185M |   0 |2334 |3674 |3739 |  93 | 10 | 494 |  63 | 2.463670e+07 | 2.463366e+07 |   0.01%| unknown
 62.5s|     1 |     0 | 32200 |     - |   185M |   0 |2334 |3674 |3744 |  98 | 11 | 494 |  63 | 2.463669e+07 | 2.463366e+07 |   0.01%| unknown
L73.0s|     1 |     0 | 32243 |     - |    rens|   0 |2334 |3646 |3744 |  98 | 11 | 855 |  63 | 2.463669e+07 | 2.463367e+07 |   0.01%| unknown
 73.0s|     1 |     0 | 32252 |     - |   185M |   0 |2334 |3585 |3744 |  98 | 11 | 855 |  63 | 2.463669e+07 | 2.463367e+07 |   0.01%| unknown
 73.3s|     1 |     0 | 32270 |     - |   185M |   0 |2334 |3585 |3753 | 107 | 12 | 855 |  63 | 2.463666e+07 | 2.463367e+07 |   0.01%| unknown
 73.4s|     1 |     0 | 32274 |     - |   185M |   0 |2334 |3585 |3755 | 109 | 13 | 855 |  63 | 2.463665e+07 | 2.463367e+07 |   0.01%| unknown
 74.2s|     1 |     0 | 32299 |     - |   186M |   0 |2334 |3584 |3755 | 109 | 13 | 864 |  72 | 2.463638e+07 | 2.463367e+07 |   0.01%| unknown
 74.2s|     1 |     0 | 32299 |     - |   186M |   0 |2334 |3584 |3690 | 109 | 13 | 864 |  72 | 2.463638e+07 | 2.463367e+07 |   0.01%| unknown
 74.5s|     1 |     0 | 32333 |     - |   186M |   0 |2334 |3584 |3689 | 119 | 14 | 864 |  72 | 2.463635e+07 | 2.463367e+07 |   0.01%| unknown
 74.6s|     1 |     0 | 32334 |     - |   186M |   0 |2334 |3584 |3690 | 120 | 15 | 864 |  72 | 2.463633e+07 | 2.463367e+07 |   0.01%| unknown
 75.2s|     1 |     0 | 32349 |     - |   186M |   0 |2334 |3571 |3690 | 120 | 15 | 871 |  80 | 2.463625e+07 | 2.463367e+07 |   0.01%| unknown
 75.2s|     1 |     0 | 32349 |     - |   186M |   0 |2334 |3571 |3682 | 120 | 15 | 871 |  80 | 2.463625e+07 | 2.463367e+07 |   0.01%| unknown
 time | node  | left  |LP iter|LP it/n|mem/heur|mdpt |vars |cons |rows |cuts |sepa|confs|strbr|  dualbound   | primalbound  |  gap   | compl. 
 75.5s|     1 |     0 | 32358 |     - |   186M |   0 |2334 |3571 |3685 | 125 | 16 | 871 |  80 | 2.463624e+07 | 2.463367e+07 |   0.01%| unknown
 75.5s|     1 |     0 | 32358 |     - |   187M |   0 |2334 |3571 |3684 | 125 | 16 | 871 |  80 | 2.463624e+07 | 2.463367e+07 |   0.01%| unknown
 75.5s|     1 |     0 | 32364 |     - |   187M |   0 |2334 |3571 |3688 | 129 | 17 | 871 |  80 | 2.463621e+07 | 2.463367e+07 |   0.01%| unknown
 76.0s|     1 |     0 | 32387 |     - |   187M |   0 |2334 |3567 |3688 | 129 | 17 | 877 |  87 | 2.463614e+07 | 2.463367e+07 |   0.01%| unknown
 76.2s|     1 |     0 | 32402 |     - |   187M |   0 |2334 |3567 |3697 | 138 | 18 | 877 |  87 | 2.463612e+07 | 2.463367e+07 |   0.01%| unknown
 76.3s|     1 |     0 | 32413 |     - |   187M |   0 |2334 |3567 |3700 | 141 | 19 | 877 |  87 | 2.463609e+07 | 2.463367e+07 |   0.01%| unknown
 76.7s|     1 |     0 | 32420 |     - |   187M |   0 |2334 |3562 |3700 | 141 | 19 | 903 |  95 | 2.463602e+07 | 2.463367e+07 |   0.01%| unknown
 77.0s|     1 |     0 | 32431 |     - |   187M |   0 |2334 |3562 |3675 | 149 | 20 | 903 |  95 | 2.463601e+07 | 2.463367e+07 |   0.01%| unknown
 77.0s|     1 |     0 | 32454 |     - |   187M |   0 |2334 |3562 |3680 | 154 | 21 | 903 |  95 | 2.463597e+07 | 2.463367e+07 |   0.01%| unknown
 77.2s|     1 |     0 | 32473 |     - |   187M |   0 |2334 |3548 |3680 | 154 | 21 | 915 | 100 | 2.463585e+07 | 2.463367e+07 |   0.01%| unknown
 77.2s|     1 |     0 | 32473 |     - |   188M |   0 |2334 |3548 |3670 | 154 | 21 | 915 | 100 | 2.463585e+07 | 2.463367e+07 |   0.01%| unknown
 77.4s|     1 |     0 | 32499 |     - |   188M |   0 |2334 |3548 |3670 | 158 | 22 | 915 | 100 | 2.463582e+07 | 2.463367e+07 |   0.01%| unknown
 77.5s|     1 |     0 | 32505 |     - |   188M |   0 |2334 |3548 |3673 | 161 | 23 | 915 | 100 | 2.463581e+07 | 2.463367e+07 |   0.01%| unknown
 78.0s|     1 |     0 | 32552 |     - |   188M |   0 |2334 |3539 |3673 | 161 | 23 |1274 | 109 | 2.463569e+07 | 2.463367e+07 |   0.01%| unknown
 78.1s|     1 |     0 | 32552 |     - |   188M |   0 |2334 |3539 |3660 | 161 | 23 |1274 | 109 | 2.463569e+07 | 2.463367e+07 |   0.01%| unknown
 time | node  | left  |LP iter|LP it/n|mem/heur|mdpt |vars |cons |rows |cuts |sepa|confs|strbr|  dualbound   | primalbound  |  gap   | compl. 
 78.3s|     1 |     0 | 32565 |     - |   189M |   0 |2334 |3539 |3657 | 166 | 24 |1274 | 109 | 2.463568e+07 | 2.463367e+07 |   0.01%| unknown
 78.4s|     1 |     0 | 32580 |     - |   190M |   0 |2334 |3539 |3485 | 167 | 25 |1274 | 109 | 2.463566e+07 | 2.463367e+07 |   0.01%| unknown
 78.6s|     1 |     0 | 32599 |     - |   190M |   0 |2334 |3528 |3485 | 167 | 25 |1645 | 114 | 2.463560e+07 | 2.463367e+07 |   0.01%| unknown
 78.8s|     1 |     0 | 32609 |     - |   190M |   0 |2334 |3528 |3470 | 168 | 26 |1645 | 114 | 2.463559e+07 | 2.463367e+07 |   0.01%| unknown
 78.8s|     1 |     0 | 32609 |     - |   190M |   0 |2334 |3528 |3469 | 168 | 26 |1645 | 114 | 2.463559e+07 | 2.463367e+07 |   0.01%| unknown
 78.8s|     1 |     0 | 32630 |     - |   190M |   0 |2334 |3528 |3471 | 170 | 27 |1645 | 114 | 2.463557e+07 | 2.463367e+07 |   0.01%| unknown
 79.3s|     1 |     0 | 32670 |     - |   190M |   0 |2334 |3464 |3444 | 170 | 27 |2015 | 122 | 2.463552e+07 | 2.463367e+07 |   0.01%| unknown
 79.5s|     1 |     0 | 32697 |     - |   190M |   0 |2334 |3464 |3409 | 176 | 28 |2015 | 122 | 2.463549e+07 | 2.463367e+07 |   0.01%| unknown
 79.6s|     1 |     0 | 32738 |     - |   190M |   0 |2334 |3464 |3411 | 178 | 29 |2015 | 122 | 2.463539e+07 | 2.463367e+07 |   0.01%| unknown
 79.6s|     1 |     0 | 32738 |     - |   190M |   0 |2334 |3464 |3409 | 178 | 29 |2015 | 122 | 2.463539e+07 | 2.463367e+07 |   0.01%| unknown
 80.0s|     1 |     0 | 32775 |     - |   190M |   0 |2334 |3453 |3409 | 178 | 29 |2404 | 129 | 2.463535e+07 | 2.463367e+07 |   0.01%| unknown
 80.2s|     1 |     0 | 32804 |     - |   190M |   0 |2334 |3453 |3388 | 185 | 30 |2404 | 129 | 2.463531e+07 | 2.463367e+07 |   0.01%| unknown
 80.2s|     1 |     0 | 32825 |     - |   191M |   0 |2334 |3453 |3366 | 188 | 31 |2404 | 129 | 2.463528e+07 | 2.463367e+07 |   0.01%| unknown
 80.7s|     1 |     0 | 32841 |     - |   191M |   0 |2334 |3439 |3366 | 188 | 31 |2440 | 137 | 2.463524e+07 | 2.463367e+07 |   0.01%| unknown
 80.9s|     1 |     0 | 32865 |     - |   191M |   0 |2334 |3439 |3350 | 194 | 32 |2440 | 137 | 2.463520e+07 | 2.463367e+07 |   0.01%| unknown
 time | node  | left  |LP iter|LP it/n|mem/heur|mdpt |vars |cons |rows |cuts |sepa|confs|strbr|  dualbound   | primalbound  |  gap   | compl. 
 80.9s|     1 |     0 | 32865 |     - |   191M |   0 |2334 |3439 |3348 | 194 | 32 |2440 | 137 | 2.463520e+07 | 2.463367e+07 |   0.01%| unknown
 80.9s|     1 |     0 | 32898 |     - |   191M |   0 |2334 |3439 |3348 | 196 | 33 |2440 | 137 | 2.463517e+07 | 2.463367e+07 |   0.01%| unknown
 80.9s|     1 |     0 | 32898 |     - |   191M |   0 |2334 |3439 |3343 | 196 | 33 |2440 | 137 | 2.463517e+07 | 2.463367e+07 |   0.01%| unknown
 81.3s|     1 |     0 | 32921 |     - |   191M |   0 |2334 |3421 |3336 | 196 | 33 |2453 | 145 | 2.463512e+07 | 2.463367e+07 |   0.01%| unknown
 81.5s|     1 |     0 | 32967 |     - |   191M |   0 |2334 |3421 |3353 | 220 | 34 |2453 | 145 | 2.463506e+07 | 2.463367e+07 |   0.01%| unknown
 81.5s|     1 |     0 | 32982 |     - |   191M |   0 |2334 |3421 |3357 | 224 | 35 |2453 | 145 | 2.463505e+07 | 2.463367e+07 |   0.01%| unknown
 81.5s|     1 |     0 | 32982 |     - |   191M |   0 |2334 |3421 |3356 | 224 | 35 |2453 | 145 | 2.463505e+07 | 2.463367e+07 |   0.01%| unknown
 81.7s|     1 |     0 | 32998 |     - |   191M |   0 |2334 |3416 |3356 | 224 | 35 |2493 | 150 | 2.463500e+07 | 2.463367e+07 |   0.01%| unknown
 81.7s|     1 |     0 | 32998 |     - |   191M |   0 |2334 |3416 |3347 | 224 | 35 |2493 | 150 | 2.463500e+07 | 2.463367e+07 |   0.01%| unknown
 81.8s|     1 |     0 | 33016 |     - |   191M |   0 |2334 |3416 |3347 | 227 | 36 |2493 | 150 | 2.463498e+07 | 2.463367e+07 |   0.01%| unknown
 81.8s|     1 |     0 | 33026 |     - |   191M |   0 |2334 |3416 |3323 | 230 | 37 |2493 | 150 | 2.463497e+07 | 2.463367e+07 |   0.01%| unknown
 82.1s|     1 |     0 | 33035 |     - |   191M |   0 |2334 |3406 |3323 | 230 | 37 |3210 | 156 | 2.463494e+07 | 2.463367e+07 |   0.01%| unknown
 82.2s|     1 |     0 | 33046 |     - |   191M |   0 |2334 |3406 |3310 | 232 | 38 |3210 | 156 | 2.463494e+07 | 2.463367e+07 |   0.01%| unknown
 82.2s|     1 |     0 | 33048 |     - |   191M |   0 |2334 |3406 |3312 | 234 | 39 |3210 | 156 | 2.463494e+07 | 2.463367e+07 |   0.01%| unknown
 82.3s|     1 |     0 | 33050 |     - |   191M |   0 |2334 |3401 |3312 | 234 | 39 |3210 | 156 | 2.463494e+07 | 2.463367e+07 |   0.01%| unknown
 time | node  | left  |LP iter|LP it/n|mem/heur|mdpt |vars |cons |rows |cuts |sepa|confs|strbr|  dualbound   | primalbound  |  gap   | compl. 
 82.3s|     1 |     0 | 33061 |     - |   191M |   0 |2334 |3401 |3296 | 237 | 40 |3210 | 156 | 2.463494e+07 | 2.463367e+07 |   0.01%| unknown
 82.4s|     1 |     0 | 33083 |     - |   191M |   0 |2334 |3401 |3300 | 241 | 41 |3210 | 156 | 2.463492e+07 | 2.463367e+07 |   0.01%| unknown
 82.6s|     1 |     0 | 33096 |     - |   191M |   0 |2334 |3400 |3300 | 241 | 41 |3216 | 161 | 2.463490e+07 | 2.463367e+07 |   0.01%| unknown
 82.6s|     1 |     0 | 33136 |     - |   191M |   0 |2334 |3400 |3314 | 255 | 42 |3216 | 161 | 2.463488e+07 | 2.463367e+07 |   0.00%| unknown
 82.7s|     1 |     0 | 33144 |     - |   191M |   0 |2334 |3400 |3318 | 259 | 43 |3216 | 161 | 2.463487e+07 | 2.463367e+07 |   0.00%| unknown
 83.0s|     1 |     0 | 33174 |     - |   191M |   0 |2334 |3399 |3318 | 259 | 43 |3602 | 168 | 2.463482e+07 | 2.463367e+07 |   0.00%| unknown
 83.2s|     1 |     0 | 33213 |     - |   191M |   0 |2334 |3399 |3264 | 271 | 44 |3602 | 168 | 2.463481e+07 | 2.463367e+07 |   0.00%| unknown
 83.2s|     1 |     0 | 33234 |     - |   191M |   0 |2334 |3399 |3265 | 272 | 45 |3602 | 168 | 2.463480e+07 | 2.463367e+07 |   0.00%| unknown
 83.6s|     1 |     0 | 33262 |     - |   192M |   0 |2334 |3390 |3265 | 272 | 45 |4038 | 174 | 2.463475e+07 | 2.463367e+07 |   0.00%| unknown
 83.8s|     1 |     0 | 33275 |     - |   192M |   0 |2334 |3390 |3232 | 278 | 46 |4038 | 174 | 2.463475e+07 | 2.463367e+07 |   0.00%| unknown
 83.8s|     1 |     0 | 33284 |     - |   192M |   0 |2334 |3390 |3234 | 280 | 47 |4038 | 174 | 2.463475e+07 | 2.463367e+07 |   0.00%| unknown
 84.4s|     1 |     0 | 33295 |     - |   192M |   0 |2334 |3374 |3234 | 280 | 47 |4060 | 183 | 2.463471e+07 | 2.463367e+07 |   0.00%| unknown
 84.5s|     1 |     0 | 33316 |     - |   192M |   0 |2334 |3374 |3225 | 283 | 48 |4060 | 183 | 2.463471e+07 | 2.463367e+07 |   0.00%| unknown
 84.6s|     1 |     0 | 33341 |     - |   192M |   0 |2334 |3374 |3232 | 290 | 49 |4060 | 183 | 2.463471e+07 | 2.463367e+07 |   0.00%| unknown
 84.7s|     1 |     0 | 33383 |     - |   192M |   0 |2334 |3365 |3232 | 290 | 49 |4067 | 188 | 2.463471e+07 | 2.463367e+07 |   0.00%| unknown
 time | node  | left  |LP iter|LP it/n|mem/heur|mdpt |vars |cons |rows |cuts |sepa|confs|strbr|  dualbound   | primalbound  |  gap   | compl. 
 84.9s|     1 |     0 | 33416 |     - |   192M |   0 |2334 |3365 |3229 | 297 | 50 |4067 | 188 | 2.463471e+07 | 2.463367e+07 |   0.00%| unknown
 84.9s|     1 |     0 | 33443 |     - |   192M |   0 |2334 |3365 |3198 | 299 | 51 |4067 | 188 | 2.463470e+07 | 2.463367e+07 |   0.00%| unknown
 84.9s|     1 |     0 | 33443 |     - |   192M |   0 |2334 |3365 |3197 | 299 | 51 |4067 | 188 | 2.463470e+07 | 2.463367e+07 |   0.00%| unknown
 84.9s|     1 |     0 | 33443 |     - |   192M |   0 |2334 |3358 |3197 | 299 | 51 |4067 | 188 | 2.463470e+07 | 2.463367e+07 |   0.00%| unknown
 85.0s|     1 |     0 | 33469 |     - |   192M |   0 |2334 |3358 |3199 | 301 | 52 |4067 | 188 | 2.463470e+07 | 2.463367e+07 |   0.00%| unknown
 85.0s|     1 |     0 | 33471 |     - |   192M |   0 |2334 |3358 |3200 | 302 | 53 |4067 | 188 | 2.463469e+07 | 2.463367e+07 |   0.00%| unknown
 85.4s|     1 |     0 | 33545 |     - |   192M |   0 |2334 |3355 |3200 | 302 | 53 |4134 | 195 | 2.463465e+07 | 2.463367e+07 |   0.00%| unknown
 85.5s|     1 |     0 | 33548 |     - |   192M |   0 |2334 |3355 |3190 | 304 | 54 |4134 | 195 | 2.463465e+07 | 2.463367e+07 |   0.00%| unknown
 85.5s|     1 |     0 | 33558 |     - |   192M |   0 |2334 |3355 |3172 | 309 | 55 |4134 | 195 | 2.463465e+07 | 2.463367e+07 |   0.00%| unknown
 85.6s|     1 |     0 | 33594 |     - |   192M |   0 |2334 |3341 |3172 | 309 | 55 |4482 | 200 | 2.463463e+07 | 2.463367e+07 |   0.00%| unknown
 85.7s|     1 |     0 | 33602 |     - |   193M |   0 |2334 |3341 |3157 | 312 | 56 |4482 | 200 | 2.463463e+07 | 2.463367e+07 |   0.00%| unknown
 85.7s|     1 |     0 | 33618 |     - |   193M |   0 |2334 |3341 |3161 | 316 | 57 |4482 | 200 | 2.463463e+07 | 2.463367e+07 |   0.00%| unknown
 85.9s|     1 |     0 | 33625 |     - |   193M |   0 |2334 |3335 |3136 | 316 | 57 |4884 | 206 | 2.463461e+07 | 2.463367e+07 |   0.00%| unknown
 86.0s|     1 |     0 | 33648 |     - |   193M |   0 |2334 |3335 |3126 | 318 | 58 |4884 | 206 | 2.463461e+07 | 2.463367e+07 |   0.00%| unknown
 86.0s|     1 |     0 | 33675 |     - |   193M |   0 |2334 |3335 |3134 | 326 | 59 |4884 | 206 | 2.463461e+07 | 2.463367e+07 |   0.00%| unknown
 time | node  | left  |LP iter|LP it/n|mem/heur|mdpt |vars |cons |rows |cuts |sepa|confs|strbr|  dualbound   | primalbound  |  gap   | compl. 
 86.2s|     1 |     0 | 33695 |     - |   193M |   0 |2334 |3330 |3134 | 326 | 59 |4892 | 211 | 2.463459e+07 | 2.463367e+07 |   0.00%| unknown
 86.2s|     1 |     0 | 33695 |     - |   193M |   0 |2334 |3330 |3128 | 326 | 59 |4892 | 211 | 2.463459e+07 | 2.463367e+07 |   0.00%| unknown
 86.3s|     1 |     0 | 33706 |     - |   193M |   0 |2334 |3330 |3129 | 329 | 60 |4892 | 211 | 2.463459e+07 | 2.463367e+07 |   0.00%| unknown
 86.3s|     1 |     0 | 33707 |     - |   193M |   0 |2334 |3330 |3130 | 330 | 61 |4892 | 211 | 2.463459e+07 | 2.463367e+07 |   0.00%| unknown
 86.4s|     1 |     0 | 33735 |     - |   193M |   0 |2334 |3319 |3130 | 330 | 61 |5285 | 216 | 2.463458e+07 | 2.463367e+07 |   0.00%| unknown
 86.4s|     1 |     0 | 33735 |     - |   193M |   0 |2334 |3319 |3121 | 330 | 61 |5285 | 216 | 2.463458e+07 | 2.463367e+07 |   0.00%| unknown
 86.5s|     1 |     0 | 33749 |     - |   193M |   0 |2334 |3319 |3120 | 334 | 62 |5285 | 216 | 2.463457e+07 | 2.463367e+07 |   0.00%| unknown
 86.5s|     1 |     0 | 33750 |     - |   194M |   0 |2334 |3319 |3121 | 335 | 63 |5285 | 216 | 2.463457e+07 | 2.463367e+07 |   0.00%| unknown
 86.5s|     1 |     0 | 33750 |     - |   194M |   0 |2334 |3313 |3121 | 335 | 63 |5285 | 216 | 2.463457e+07 | 2.463367e+07 |   0.00%| unknown
 86.6s|     1 |     0 | 33754 |     - |   194M |   0 |2334 |3313 |3123 | 337 | 64 |5285 | 216 | 2.463457e+07 | 2.463367e+07 |   0.00%| unknown
 86.6s|     1 |     0 | 33762 |     - |   194M |   0 |2334 |3313 |3125 | 339 | 65 |5285 | 216 | 2.463457e+07 | 2.463367e+07 |   0.00%| unknown
 86.8s|     1 |     0 | 33787 |     - |   194M |   0 |2334 |3312 |3125 | 339 | 65 |5322 | 222 | 2.463456e+07 | 2.463367e+07 |   0.00%| unknown
 86.9s|     1 |     0 | 33796 |     - |   194M |   0 |2334 |3312 |3117 | 340 | 66 |5322 | 222 | 2.463456e+07 | 2.463367e+07 |   0.00%| unknown
 86.9s|     1 |     0 | 33799 |     - |   194M |   0 |2334 |3312 |3119 | 342 | 67 |5322 | 222 | 2.463456e+07 | 2.463367e+07 |   0.00%| unknown
 87.0s|     1 |     0 | 33845 |     - |   194M |   0 |2334 |3305 |3119 | 342 | 67 |5327 | 227 | 2.463453e+07 | 2.463367e+07 |   0.00%| unknown
 time | node  | left  |LP iter|LP it/n|mem/heur|mdpt |vars |cons |rows |cuts |sepa|confs|strbr|  dualbound   | primalbound  |  gap   | compl. 
 87.0s|     1 |     0 | 33845 |     - |   194M |   0 |2334 |3305 |3112 | 342 | 67 |5327 | 227 | 2.463453e+07 | 2.463367e+07 |   0.00%| unknown
 87.1s|     1 |     0 | 33846 |     - |   194M |   0 |2334 |3305 |3112 | 343 | 68 |5327 | 227 | 2.463453e+07 | 2.463367e+07 |   0.00%| unknown
 87.1s|     1 |     0 | 33859 |     - |   194M |   0 |2334 |3305 |3069 | 348 | 69 |5327 | 227 | 2.463453e+07 | 2.463367e+07 |   0.00%| unknown
 87.3s|     1 |     0 | 33886 |     - |   194M |   0 |2334 |3296 |3069 | 348 | 69 |5337 | 233 | 2.463453e+07 | 2.463367e+07 |   0.00%| unknown
 87.3s|     1 |     0 | 33896 |     - |   194M |   0 |2334 |3296 |3063 | 350 | 70 |5337 | 233 | 2.463452e+07 | 2.463367e+07 |   0.00%| unknown
 87.5s|     1 |     0 | 33914 |     - |   194M |   0 |2334 |3292 |3063 | 350 | 71 |5342 | 239 | 2.463451e+07 | 2.463367e+07 |   0.00%| unknown
 87.6s|     1 |     0 | 33922 |     - |   194M |   0 |2334 |3292 |3039 | 352 | 72 |5342 | 239 | 2.463451e+07 | 2.463367e+07 |   0.00%| unknown
 87.6s|     1 |     0 | 33922 |     - |   194M |   0 |2334 |3286 |3039 | 352 | 73 |5342 | 239 | 2.463451e+07 | 2.463367e+07 |   0.00%| unknown
 87.7s|     1 |     0 | 33950 |     - |   194M |   0 |2334 |3286 |3037 | 365 | 74 |5342 | 239 | 2.463451e+07 | 2.463367e+07 |   0.00%| unknown
 87.8s|     1 |     0 | 33972 |     - |   194M |   0 |2334 |3277 |3037 | 365 | 75 |5348 | 244 | 2.463451e+07 | 2.463367e+07 |   0.00%| unknown
 87.8s|     1 |     0 | 33982 |     - |   194M |   0 |2334 |3277 |3036 | 372 | 76 |5348 | 244 | 2.463451e+07 | 2.463367e+07 |   0.00%| unknown
 87.9s|     1 |     0 | 33985 |     - |   194M |   0 |2334 |3277 |3038 | 374 | 77 |5348 | 244 | 2.463451e+07 | 2.463367e+07 |   0.00%| unknown
 88.1s|     1 |     0 | 34003 |     - |   194M |   0 |2334 |3139 |3024 | 374 | 77 |5756 | 251 | 2.463451e+07 | 2.463367e+07 |   0.00%| unknown
 88.1s|     1 |     0 | 34004 |     - |   194M |   0 |2334 |3139 |3025 | 375 | 78 |5756 | 251 | 2.463451e+07 | 2.463367e+07 |   0.00%| unknown
 88.3s|     1 |     0 | 34015 |     - |   195M |   0 |2334 |3136 |3025 | 375 | 79 |5765 | 257 | 2.463450e+07 | 2.463367e+07 |   0.00%| unknown
 time | node  | left  |LP iter|LP it/n|mem/heur|mdpt |vars |cons |rows |cuts |sepa|confs|strbr|  dualbound   | primalbound  |  gap   | compl. 
 88.3s|     1 |     0 | 34018 |     - |   195M |   0 |2334 |3136 |2973 | 377 | 80 |5765 | 257 | 2.463450e+07 | 2.463367e+07 |   0.00%| unknown
 88.4s|     1 |     0 | 34022 |     - |   195M |   0 |2334 |3136 |2974 | 378 | 81 |5765 | 257 | 2.463450e+07 | 2.463367e+07 |   0.00%| unknown
 88.5s|     1 |     0 | 34044 |     - |   195M |   0 |2334 |3127 |2974 | 378 | 81 |5774 | 262 | 2.463450e+07 | 2.463367e+07 |   0.00%| unknown
 88.6s|     1 |     0 | 34053 |     - |   195M |   0 |2334 |3127 |2968 | 381 | 82 |5774 | 262 | 2.463450e+07 | 2.463367e+07 |   0.00%| unknown
 88.6s|     1 |     0 | 34067 |     - |   195M |   0 |2334 |3127 |2969 | 388 | 83 |5774 | 262 | 2.463450e+07 | 2.463367e+07 |   0.00%| unknown
 88.7s|     1 |     0 | 34084 |     - |   195M |   0 |2334 |3118 |2969 | 388 | 83 |5780 | 268 | 2.463449e+07 | 2.463367e+07 |   0.00%| unknown
 88.8s|     1 |     0 | 34094 |     - |   195M |   0 |2334 |3118 |2924 | 389 | 84 |5780 | 268 | 2.463449e+07 | 2.463367e+07 |   0.00%| unknown
 89.0s|     1 |     0 | 34113 |     - |   195M |   0 |2334 |3114 |2924 | 389 | 85 |6572 | 275 | 2.463447e+07 | 2.463367e+07 |   0.00%| unknown
 89.0s|     1 |     0 | 34122 |     - |   195M |   0 |2334 |3114 |2908 | 392 | 86 |6572 | 275 | 2.463447e+07 | 2.463367e+07 |   0.00%| unknown
 89.0s|     1 |     0 | 34122 |     - |   195M |   0 |2334 |3109 |2908 | 392 | 87 |6572 | 275 | 2.463447e+07 | 2.463367e+07 |   0.00%| unknown
 89.1s|     1 |     0 | 34123 |     - |   195M |   0 |2334 |3109 |2909 | 393 | 88 |6572 | 275 | 2.463447e+07 | 2.463367e+07 |   0.00%| unknown
 89.1s|     1 |     0 | 34135 |     - |   195M |   0 |2334 |3106 |2892 | 393 | 89 |6979 | 280 | 2.463447e+07 | 2.463367e+07 |   0.00%| unknown
 89.2s|     1 |     0 | 34136 |     - |   195M |   0 |2334 |3106 |2881 | 394 | 90 |6979 | 280 | 2.463447e+07 | 2.463367e+07 |   0.00%| unknown
 89.3s|     1 |     0 | 34146 |     - |   195M |   0 |2334 |3034 |2881 | 394 | 91 |7391 | 287 | 2.463447e+07 | 2.463367e+07 |   0.00%| unknown
 89.4s|     1 |     0 | 34146 |     - |   195M |   0 |2334 |3034 |2843 | 394 | 92 |7391 | 287 | 2.463447e+07 | 2.463367e+07 |   0.00%| unknown
 time | node  | left  |LP iter|LP it/n|mem/heur|mdpt |vars |cons |rows |cuts |sepa|confs|strbr|  dualbound   | primalbound  |  gap   | compl. 
 89.4s|     1 |     0 | 34149 |     - |   195M |   0 |2334 |3030 |2843 | 394 | 93 |7401 | 292 | 2.463447e+07 | 2.463367e+07 |   0.00%| unknown
 89.5s|     1 |     0 | 34149 |     - |   195M |   0 |2334 |3030 |2838 | 394 | 94 |7401 | 292 | 2.463447e+07 | 2.463367e+07 |   0.00%| unknown
 89.5s|     1 |     2 | 34149 |     - |   195M |   0 |2334 |3028 |2838 | 394 | 95 |7401 | 292 | 2.463447e+07 | 2.463367e+07 |   0.00%| unknown
o95.9s|    34 |    29 | 35706 | 355.2 |objpscos|  18 |2334 |2982 |2789 | 401 |  3 |7424 | 496 | 2.463425e+07 | 2.463370e+07 |   0.00%|  58.87%
d98.8s|    51 |    38 | 43979 | 399.0 |guideddi|  18 |2334 |2978 |2789 |   0 |  1 |7441 | 529 | 2.463423e+07 | 2.463371e+07 |   0.00%|  71.20%
i98.8s|    51 |    38 | 44054 | 400.5 |  oneopt|  18 |2334 |2978 |2789 | 401 |  1 |7441 | 529 | 2.463423e+07 | 2.463375e+07 |   0.00%|  71.20%
* 100s|   100 |    49 | 44835 | 212.1 |    LP  |  26 |2334 |2978 |2789 | 405 |  1 |7448 | 566 | 2.463415e+07 | 2.463375e+07 |   0.00%|  78.70%
L 103s|   200 |    57 | 45764 | 110.7 |    gins|  26 |2334 |2980 |2790 | 413 |  0 |7450 | 601 | 2.463410e+07 | 2.463375e+07 |   0.00%|  86.56%
  108s|   300 |    49 | 46350 |  75.7 |   199M |  26 |2334 |2982 |2789 | 419 |  0 |7452 | 617 | 2.463392e+07 | 2.463375e+07 |   0.00%|  93.19%

SCIP Status        : problem is solved [optimal solution found]
Solving Time (sec) : 113.30
Solving Nodes      : 382 (total of 383 nodes in 2 runs)
Primal Bound       : +2.46337544760848e+07 (449 solutions)
Dual Bound         : +2.46337544760848e+07
Gap                : 0.00 %
Solve Status: optimal
Solve Time: 113.31 seconds
